qbf_easy_train/easy_3361_SAT.qdimacs
p cnf 21 49
a 10 19 0
e 1 2 3 4 5 6 7 8 9 11 12 13 14 15 16 17 18 20 21 0
-1 2 -3 0
1 -2 -3 0
-1 -2 3 0
1 2 3 0
6 4 0
6 -5 0
-4 5 -6 0
-9 8 0
-9 -5 0
-8 5 9 0
7 9 -10 0
-7 -9 -10 0
7 -9 10 0
-7 9 10 0
11 -6 0
11 10 0
6 -10 -11 0
-3 -11 -12 0
3 11 -12 0
-3 11 12 0
3 -11 12 0
14 4 0
14 -13 0
-4 13 -14 0
15 14 0
15 -14 0
17 -4 0
17 16 0
4 -16 -17 0
18 -15 0
18 17 0
15 -17 -18 0
13 -8 -19 0
-13 8 -19 0
13 8 19 0
-13 -8 19 0
18 19 -20 0
-18 -19 -20 0
18 -19 20 0
-18 19 20 0
12 -20 -21 0
-12 20 -21 0
12 20 21 0
-12 -20 21 0
9 -11 -7 0
17 10 14 -2 -12 0
18 -7 14 21 0
-13 21 -5 4 -14 9 18 19 0
21 0
