sat_easy_train/easy_3361_SAT.dimacs
p cnf 136 464
-1 2 -3 0
1 -2 -3 0
-1 -2 3 0
1 2 3 0
6 -4 0
6 5 0
4 -5 -6 0
7 4 -8 0
-7 -4 -8 0
7 -4 8 0
-7 4 8 0
-6 8 -9 0
6 -8 -9 0
-6 -8 9 0
6 8 9 0
3 -9 -10 0
-3 9 -10 0
3 9 10 0
-3 -9 10 0
12 -10 0
12 11 0
10 -11 -12 0
13 -2 0
13 -1 0
2 1 -13 0
-15 -14 0
-15 -6 0
14 6 15 0
-16 13 0
-16 -15 0
-13 15 16 0
17 2 0
17 16 0
-2 -16 -17 0
12 -17 -18 0
-12 17 -18 0
12 17 18 0
-12 -17 18 0
-20 -19 0
-20 -1 0
19 1 20 0
23 1 0
23 -22 0
-1 22 -23 0
21 -23 -24 0
-21 23 -24 0
21 23 24 0
-21 -23 24 0
25 -11 0
25 24 0
11 -24 -25 0
26 25 0
26 -1 0
-25 1 -26 0
28 -21 0
28 -27 0
21 27 -28 0
30 -29 0
30 28 0
29 -28 -30 0
-30 22 -31 0
30 -22 -31 0
-30 -22 31 0
30 22 31 0
-28 -31 -32 0
28 31 -32 0
-28 31 32 0
28 -31 32 0
7 33 -34 0
-7 -33 -34 0
7 -33 34 0
-7 33 34 0
-35 32 0
-35 -34 0
-32 34 35 0
-26 -35 -36 0
26 35 -36 0
-26 35 36 0
26 -35 36 0
-37 20 0
-37 -36 0
-20 36 37 0
-38 -8 0
-38 -6 0
8 6 38 0
39 28 0
39 -38 0
-28 38 -39 0
-39 -40 -41 0
39 40 -41 0
-39 40 41 0
39 -40 41 0
41 -1 -42 0
-41 1 -42 0
41 1 42 0
-41 -1 42 0
-43 -37 0
-43 -42 0
37 42 43 0
22 -29 -44 0
-22 29 -44 0
22 29 44 0
-22 -29 44 0
46 -44 0
46 45 0
44 -45 -46 0
5 -47 0
-5 -47 0
24 47 -48 0
-24 -47 -48 0
24 -47 48 0
-24 47 48 0
-46 48 -49 0
46 -48 -49 0
-46 -48 49 0
46 48 49 0
-21 40 -50 0
21 -40 -50 0
-21 -40 50 0
21 40 50 0
51 33 0
51 -50 0
-33 50 -51 0
21 51 -52 0
-21 -51 -52 0
21 -51 52 0
-21 51 52 0
53 33 0
53 52 0
-33 -52 -53 0
54 49 0
54 53 0
-49 -53 -54 0
13 28 -55 0
-13 -28 -55 0
13 -28 55 0
-13 28 55 0
-56 -24 0
-56 -40 0
24 40 56 0
-56 30 -57 0
56 -30 -57 0
-56 -30 57 0
56 30 57 0
1 57 -58 0
-1 -57 -58 0
1 -57 58 0
-1 57 58 0
-59 -34 0
-59 58 0
34 -58 59 0
-24 13 -61 0
24 -13 -61 0
-24 -13 61 0
24 13 61 0
60 -61 -62 0
-60 61 -62 0
60 61 62 0
-60 -61 62 0
63 59 0
63 -62 0
-59 62 -63 0
-64 -55 0
-64 63 0
55 -63 64 0
65 -2 0
65 -14 0
2 14 -65 0
-66 64 0
-66 -65 0
-64 65 66 0
52 13 -67 0
-52 -13 -67 0
52 -13 67 0
-52 13 67 0
66 67 -68 0
-66 -67 -68 0
66 -67 68 0
-66 67 68 0
69 54 0
69 68 0
-54 -68 -69 0
70 9 0
70 59 0
-9 -59 -70 0
71 7 0
71 -60 0
-7 60 -71 0
70 71 -72 0
-70 -71 -72 0
70 -71 72 0
-70 71 72 0
73 69 0
73 -72 0
-69 72 -73 0
-74 -34 0
-74 3 0
34 -3 74 0
-25 -74 -75 0
25 74 -75 0
-25 74 75 0
25 -74 75 0
-76 75 0
-76 -47 0
-75 47 76 0
9 52 -77 0
-9 -52 -77 0
9 -52 77 0
-9 52 77 0
-76 77 -78 0
76 -77 -78 0
-76 -77 78 0
76 77 78 0
-79 -73 0
-79 -78 0
73 78 79 0
-10 21 -80 0
10 -21 -80 0
-10 -21 80 0
10 21 80 0
-81 -19 0
-81 34 0
19 -34 81 0
82 -21 0
82 81 0
21 -81 -82 0
-83 -29 0
-83 -21 0
29 21 83 0
-84 83 0
-84 -38 0
-83 38 84 0
85 82 0
85 84 0
-82 -84 -85 0
-86 80 0
-86 -85 0
-80 85 86 0
87 -79 0
87 -86 0
79 86 -87 0
88 34 0
88 9 0
-34 -9 -88 0
-7 88 -89 0
7 -88 -89 0
-7 -88 89 0
7 88 89 0
-90 7 0
-90 89 0
-7 -89 90 0
91 90 0
91 -40 0
-90 40 -91 0
-92 -28 0
-92 41 0
28 -41 92 0
2 23 -93 0
-2 -23 -93 0
2 -23 93 0
-2 23 93 0
-94 14 0
-94 93 0
-14 -93 94 0
92 94 -95 0
-92 -94 -95 0
92 -94 95 0
-92 94 95 0
-96 -7 0
-96 -32 0
7 32 96 0
-97 96 0
-97 -30 0
-96 30 97 0
-98 95 0
-98 -97 0
-95 97 98 0
99 91 0
99 -98 0
-91 98 -99 0
100 74 0
100 33 0
-74 -33 -100 0
-33 100 -101 0
33 -100 -101 0
-33 -100 101 0
33 100 101 0
-29 -7 -102 0
29 7 -102 0
-29 7 102 0
29 -7 102 0
103 9 0
103 -102 0
-9 102 -103 0
104 83 0
104 10 0
-83 -10 -104 0
105 62 0
105 -104 0
-62 104 -105 0
103 105 -106 0
-103 -105 -106 0
103 -105 106 0
-103 105 106 0
39 93 -107 0
-39 -93 -107 0
39 -93 107 0
-39 93 107 0
108 106 0
108 107 0
-106 -107 -108 0
-109 101 0
-109 -108 0
-101 108 109 0
-99 109 -110 0
99 -109 -110 0
-99 -109 110 0
99 109 110 0
111 4 0
111 15 0
-4 -15 -111 0
112 -56 0
112 111 0
56 -111 -112 0
113 -110 0
113 112 0
110 -112 -113 0
-114 87 0
-114 -113 0
-87 113 114 0
-9 -33 -115 0
9 33 -115 0
-9 33 115 0
9 -33 115 0
-116 115 0
-116 -38 0
-115 38 116 0
-39 -10 -117 0
39 10 -117 0
-39 10 117 0
39 -10 117 0
-118 -21 0
-118 -3 0
21 3 118 0
-119 -117 0
-119 -118 0
117 118 119 0
120 -25 0
120 4 0
25 -4 -120 0
-121 111 0
-121 13 0
-111 -13 121 0
120 -121 -122 0
-120 121 -122 0
120 121 122 0
-120 -121 122 0
119 122 -123 0
-119 -122 -123 0
119 -122 123 0
-119 122 123 0
-124 83 0
-124 111 0
-83 -111 124 0
125 6 0
125 124 0
-6 -124 -125 0
126 5 0
126 -4 0
-5 4 -126 0
125 126 -127 0
-125 -126 -127 0
125 -126 127 0
-125 126 127 0
-128 123 0
-128 127 0
-123 -127 128 0
129 116 0
129 128 0
-116 -128 -129 0
52 33 -130 0
-52 -33 -130 0
52 -33 130 0
-52 33 130 0
131 33 0
131 -96 0
-33 96 -131 0
-132 130 0
-132 131 0
-130 -131 132 0
133 129 0
133 132 0
-129 -132 -133 0
134 -114 0
134 -133 0
114 133 -134 0
135 -43 0
135 -134 0
43 134 -135 0
-18 -135 -136 0
18 135 -136 0
-18 135 136 0
18 -135 136 0
125 71 -34 0
-67 -76 28 0
95 81 87 -31 0
103 84 28 -120 88 32 0
-107 -87 -82 -105 -31 0
67 81 -118 123 -85 60 0
89 -51 -81 45 0
79 134 68 -55 -22 0
101 -57 -99 -78 -95 97 0
33 0
43 -62 46 11 -127 0
64 -11 128 -101 -74 -113 0
-95 -109 -128 -81 0
-79 -105 -70 0
111 114 -66 0
77 112 0
107 -11 -133 -114 -117 12 0
-30 117 -102 37 0
7 76 -13 -75 -68 -63 0
83 -94 14 0
-109 92 57 -11 116 0
-107 103 8 -57 -63 0
16 42 40 96 0
27 -64 0
86 32 54 76 127 -121 0
14 127 0
112 -129 110 5 85 87 0
87 -58 66 0
-40 111 -14 -78 0
-30 -66 -35 37 10 0
-16 78 0
-1 -89 131 55 0
12 -69 122 0
25 -79 46 -84 -106 0
-108 -17 54 -19 -136 0
-135 122 15 -86 0
96 84 -123 11 -60 -130 0
-69 -72 31 107 -33 -59 0
32 -67 -82 71 49 0
59 -79 -73 33 0
110 -97 102 22 0
59 18 123 -51 0
52 104 11 0
-4 110 0
76 -78 0
-17 71 82 0
-23 56 0
-43 -49 -85 18 -102 0
-31 -108 -87 -26 9 10 0
123 87 2 -85 0
-131 -45 -87 101 0
-125 -135 80 113 0
-85 45 133 0
52 -102 -42 85 0
-109 -129 46 0
-88 112 38 -73 -128 0
-102 -115 -71 -100 -32 0
-4 -46 -68 0
15 27 71 -116 -95 64 0
-67 -16 102 0
136 0
